********************************************************************************
Field Output Report, written Tue Nov 12 20:57:10 2019

Source 1
---------

   ODB: /home/markinho/abaqusworks/Job-1.odb
   Step: Step-1
   Frame: Increment      1: Step Time =    1.000

Loc 1 : Nodal values from source 1

Output sorted by column "Node Label".

Field Output reported at nodes for part: PART-1-1

            Node          RF.RF1          RF.RF2            U.U1            U.U2
           Label          @Loc 1          @Loc 1          @Loc 1          @Loc 1
---------------------------------------------------------------------------------
               1              0.              0.     6.54547E-06    -2.71228E-03
               2              0.              0.    -6.54547E-06    -2.71228E-03
               3              0.              0.     17.8398E-06    -2.60207E-03
               4              0.              0.    -17.8398E-06    -2.60207E-03
               5              0.              0.     39.4348E-06    -2.27505E-03
               6              0.              0.    -39.4348E-06    -2.27505E-03
               7              0.              0.     54.0519E-06    -1.73047E-03
               8              0.              0.    -54.0519E-06    -1.73047E-03
               9              0.              0.     95.6601E-06    -963.788E-06
              10              0.              0.    -95.6601E-06    -963.788E-06
              11        -4.54625          31.875     4.54625E-36    -28.6875E-36
              12         4.54625          31.875    -4.54625E-36    -28.6875E-36


  Minimum               -4.54625              0.    -95.6601E-06    -2.71228E-03
         At Node              11              10              10               2

  Maximum                4.54625          31.875     95.6601E-06    -28.6875E-36
         At Node              12              12               9              12

           Total              0.           63.75              0.    -20.5673E-03


********************************************************************************
Field Output Report, written Tue Nov 12 21:04:24 2019

Source 1
---------

   ODB: /home/markinho/abaqusworks/Job-1.odb
   Step: Step-1
   Frame: Increment      1: Step Time =    1.000

Loc 1 : Integration point values from source 1

Output sorted by column "Element Label".

Field Output reported at integration points for part: PART-1-1

         Element             Int         S.Mises     S.Max. In-P     S.Min. In-P     S.Out-of-Pl        S.Tresca           S.S11           S.S22           S.S33           S.S12
           Label              Pt          @Loc 1          @Loc 1          @Loc 1          @Loc 1          @Loc 1          @Loc 1          @Loc 1          @Loc 1          @Loc 1
---------------------------------------------------------------------------------------------------------------------------------------------------------------------------------
               1               1     2.13899E-03     2.15633E-03     35.1110E-06              0.     2.15633E-03     36.4335E-06     2.15500E-03              0.     52.9494E-06
               1               2     2.13899E-03     2.15633E-03     35.1110E-06              0.     2.15633E-03     36.4335E-06     2.15500E-03              0.    -52.9494E-06
               1               3     2.24035E-03     2.09618E-03    -264.801E-06              0.     2.36098E-03    -263.613E-06     2.09500E-03              0.     52.9494E-06
               1               4     2.24035E-03     2.09618E-03    -264.801E-06              0.     2.36098E-03    -263.613E-06     2.09500E-03              0.    -52.9494E-06
               2               1     6.29165E-03     6.43404E-03     295.171E-06              0.     6.43404E-03     296.842E-06     6.43237E-03              0.     101.241E-06
               2               2     6.29165E-03     6.43404E-03     295.171E-06              0.     6.43404E-03     296.842E-06     6.43237E-03              0.    -101.241E-06
               2               3     6.46289E-03     6.31918E-03    -278.410E-06              0.     6.59759E-03    -276.856E-06     6.31763E-03              0.     101.241E-06
               2               4     6.46289E-03     6.31918E-03    -278.410E-06              0.     6.59759E-03    -276.856E-06     6.31763E-03              0.    -101.241E-06
               3               1     10.5396E-03     10.6643E-03     253.895E-06              0.     10.6643E-03     254.346E-06     10.6638E-03              0.     68.5270E-06
               3               2     10.5396E-03     10.6643E-03     253.895E-06              0.     10.6643E-03     254.346E-06     10.6638E-03              0.    -68.5270E-06
               3               3     10.6544E-03     10.5866E-03    -134.412E-06              0.     10.7210E-03    -133.973E-06     10.5862E-03              0.     68.5270E-06
               3               4     10.6544E-03     10.5866E-03    -134.412E-06              0.     10.7210E-03    -133.973E-06     10.5862E-03              0.    -68.5270E-06
               4               1     14.8801E-03     14.9881E-03     218.465E-06              0.     14.9881E-03     221.042E-06     14.9855E-03              0.     195.065E-06
               4               2     14.8801E-03     14.9881E-03     218.465E-06              0.     14.9881E-03     221.042E-06     14.9855E-03              0.    -195.065E-06
               4               3     15.2296E-03     14.7669E-03    -886.759E-06              0.     15.6537E-03    -884.328E-06     14.7645E-03              0.     195.065E-06
               4               4     15.2296E-03     14.7669E-03    -886.759E-06              0.     15.6537E-03    -884.328E-06     14.7645E-03              0.    -195.065E-06
               5               1     18.6702E-03     18.8818E-03     430.618E-06              0.     18.8818E-03     441.524E-06     18.8709E-03              0.    -448.468E-06
               5               2     18.6702E-03     18.8818E-03     430.618E-06              0.     18.8818E-03     441.524E-06     18.8709E-03              0.     448.468E-06
               5               3     18.0900E-03     19.3914E-03     2.97059E-03              0.     19.3914E-03     2.98285E-03     19.3791E-03              0.    -448.468E-06
               5               4     18.0900E-03     19.3914E-03     2.97059E-03              0.     19.3914E-03     2.98285E-03     19.3791E-03              0.     448.468E-06


  Minimum                            2.13899E-03     2.09618E-03    -886.759E-06              0.     2.15633E-03    -884.328E-06     2.09500E-03              0.    -448.468E-06
      At Element                               1               1               4               5               1               4               1               5               5
          Int Pt                               2               4               4               4               2               4               4               4               3

  Maximum                            18.6702E-03     19.3914E-03     2.97059E-03              0.     19.3914E-03     2.98285E-03     19.3791E-03              0.     448.468E-06
      At Element                               5               5               5               5               5               5               5               5               5
          Int Pt                               2               4               4               4               4               4               4               4               4

           Total                     210.396E-03     212.570E-03     5.27893E-03              0.     215.698E-03     5.34853E-03     212.500E-03              0.              0.


